25 40
1 2 4
1 6 1
2 3 3
2 7 3
3 4 1
3 8 3
4 5 2
4 9 4
5 10 1
6 7 5
6 11 3
7 8 3
7 12 3
8 9 4
8 13 4
9 10 2
9 14 5
10 15 4
11 12 1
11 16 2
12 13 2
12 17 1
13 14 4
13 18 2
14 15 5
14 19 1
15 20 3
16 17 5
16 21 2
17 18 2
17 22 4
18 19 4
18 23 2
19 20 2
19 24 4
20 25 2
21 22 4
22 23 2
23 24 2
24 25 2
